language ESSENCE' 1.0
$ minion Nodes: 4
$ minion TotalTime: 0.000429
$ Savile Row TotalTime: 0.118
letting x_SetOccurrence be [false, false, false, false, false, false, false, false, true, true;int(0..9)]
